CMD:
./solvers/bin/cadical --plain --no-reduce -t 1600 ./data/cnfs//nusmvreactorp5/nusmvreactorp5.6.cnf

c --- [ banner ] -------------------------------------------------------------
c 
c CaDiCaL SAT Solver
c Copyright (c) 2016-2024
c A. Biere, M. Fleury, N. Froleyks, K. Fazekas, F. Pollitt, T. Faller
c JKU Linz, University of Freiburg, TU Wien
c 
c Version 2.1.3 5296d3d2a9bf48c154ab2acb5e44625776d821bf
c g++ (Gentoo 12.3.1_p20230526 p2) 12.3.1 20230526 -Wall -Wextra -O3 -DNDEBUG
c Sat Aug 9 07:26:21 PDT 2025 Linux cedar2.int.cedar.computecanada.ca 5.14.0-362.24.2.el9_3.x86_64 x86_64
c 
c --- [ limit ] --------------------------------------------------------------
c 
c setting time limit to 1600 seconds real time (due to '-t 1600')
c 
c --- [ parsing input ] ------------------------------------------------------
c 
c reading DIMACS file from './data/cnfs//nusmvreactorp5/nusmvreactorp5.6.cnf'
c opening file to read './data/cnfs//nusmvreactorp5/nusmvreactorp5.6.cnf'
c found 'p cnf 9160 25800' header
c parsed 25800 clauses in 0.00 seconds process time
c 
c --- [ options ] ------------------------------------------------------------
c 
c   --compact=false                (different from default 'true')
c   --decompose=false              (different from default 'true')
c   --deduplicate=false            (different from default 'true')
c   --elim=false                   (different from default 'true')
c   --probe=false                  (different from default 'true')
c   --reduce=false                 (different from default 'true')
c   --subsume=false                (different from default 'true')
c   --ternary=false                (different from default 'true')
c   --transred=false               (different from default 'true')
c   --vivify=false                 (different from default 'true')
c 
c --- [ solving ] ------------------------------------------------------------
c 
c time measured in process time since initialization
c 
c  seconds  reductions  redundant  irredundant
c         MB    restarts       trail     variables
c          level   conflicts       glue       remaining
c 
c *  0.00  8  0 0   0    0    0  0% 0 24498 5346 58%
c {  0.00  8  0 0   0    0    0  0% 0 24498 5346 58%
c i  0.00  8 55 0   0    2    1 53% 0 24498 5336 58%
c i  0.00  8 55 0   0    3    1 56% 0 24498 5326 58%
c i  0.00  8 55 0   0    4    1 57% 0 24498 5316 58%
c i  0.00  8 72 0   0   13    7 61% 1 24498 5299 58%
c i  0.00  8 70 0   0   14    7 61% 1 24498 5286 58%
c i  0.00  8 71 0   0   17    7 62% 1 24498 5263 57%
c i  0.00  8 70 0   0   19    7 62% 1 24498 5243 57%
c i  0.00  8 69 0   0   20    7 61% 1 24498 5235 57%
c i  0.00  8 69 0   0   21    7 60% 1 24498 5225 57%
c i  0.00  8 68 0   0   22    7 61% 1 24498 5207 57%
c i  0.00  8 68 0   0   24    8 62% 1 24498 5115 56%
c i  0.00  8 68 0   0   25    8 62% 1 24498 5054 55%
c i  0.00  8 68 0   0   26    8 62% 1 24498 5039 55%
c i  0.01  8 70 0   0   31   12 64% 1 24498 5038 55%
c i  0.01  8 70 0   0   32   12 64% 1 24498 4829 53%
c i  0.01  8 69 0   0   35   14 63% 1 24498 4828 53%
c i  0.01  8 70 0   1   48   22 67% 1 24498 4778 52%
c i  0.01  8 66 0   2   52   25 68% 1 24498 4773 52%
c 
c  seconds  reductions  redundant  irredundant
c         MB    restarts       trail     variables
c          level   conflicts       glue       remaining
c 
c i  0.01  8 62 0   2   55   25 67% 1 24498 4722 52%
c i  0.01  8 61 0   2   56   25 66% 1 24498 4719 52%
c }  0.01  8 58 0   2   60   26 65% 1 24498 4694 51%
c 0  0.01  8 58 0   2   60   26 65% 1 24498 4694 51%
c 
c --- [ result ] -------------------------------------------------------------
c 
s UNSATISFIABLE
c 
c --- [ run-time profiling ] -------------------------------------------------
c 
c process time taken by individual solving procedures
c (percentage relative to process time for solving)
c 
c         0.00  225.26% parse
c         0.00   97.03% search
c         0.00   90.31% unstable
c         0.00    6.30% lucky
c         0.00    0.00% simplify
c   =================================
c         0.00   29.58% solve
c 
c last line shows process time for solving
c (percentage relative to total process time)
c 
c --- [ statistics ] ---------------------------------------------------------
c 
c chronological:                49        81.67 %  of conflicts
c conflicts:                    60     36341.61    per second
c decisions:                   460    278619.02    per second
c fixed:                      4466        48.76 %  of all variables
c learned:                      55        91.67 %  per conflict
c learned_lits:                130       100.00 %  learned literals
c minimized:                     0         0.00 %  learned literals
c shrunken:                     30        23.08 %  learned literals
c minishrunken:                  0         0.00 %  learned literals
c otfs:                          3         5.00 %  of conflict
c propagations:              37339        22.62 M  per second
c restarts:                      2        30.00    interval
c subsumed:                      4         0.02 %  of all clauses
c strengthened:                  3         0.01 %  of all clauses
c 
c seconds are measured in process time for solving
c 
c --- [ resources ] ----------------------------------------------------------
c 
c total process time since initialization:         0.01    seconds
c total real time since initialization:            0.01    seconds
c maximum resident set size of process:           30.71    MB
c 
c --- [ shutting down ] ------------------------------------------------------
c 
c exit 20
